新首钢->模式口
weekday
5 58
6 05 14 23 32 40 49 57
7 06 14 23 31 40 48 57
8 05 14 22 31 39 48 56
9 05 13 22 30 39 47 56
10 04 13 21 30 38 47 55
11 04 12 21 29 38 46 55
12 03 12 20 29 37 46 54
13 03 11 20 28 37 45 54
14 02 11 19 28 36 45 53
15 02 10 19 27 36 44 53
16 01 10 18 27 35 44 52
17 01 09 18 26 35 43 52
18 00 09 17 26 34 43 51
19 00 08 17 25 34 42 51 59
20 08 16 25 33 42 50 59
21 07 16 24 33 41 50 58

weekend
5 58
6 05 14 23 32 40 49 57
7 06 14 23 31 40 48 57
8 05 14 22 31 39 48 56
9 05 13 22 30 39 47 56
10 04 13 21 30 38 47 55
11 04 12 21 29 38 46 55
12 03 12 20 29 37 46 54
13 03 11 20 28 37 45 54
14 02 11 19 28 36 45 53
15 02 10 19 27 36 44 53
16 01 10 18 27 35 44 52
17 01 09 18 26 35 43 52
18 00 09 17 26 34 43 51
19 00 08 17 25 34 42 51 59
20 08 16 25 33 42 50 59
21 07 16 24 33 41 50 58


